(declare-fun xx_ack!88 () (_ BitVec 64))
(declare-fun x0_ack!89 () (_ BitVec 64))
(declare-fun x1_ack!84 () (_ BitVec 64))
(declare-fun x2_ack!85 () (_ BitVec 64))
(declare-fun FPCHECK_FSUB_ACCURACY ((_ BitVec 64) (_ BitVec 64)) Bool)
(declare-fun y1_ack!86 () (_ BitVec 64))
(declare-fun y2_ack!87 () (_ BitVec 64))
(assert (not (fp.lt ((_ to_fp 11 53) xx_ack!88) ((_ to_fp 11 53) #xabababababababab))))
(assert (not (fp.gt ((_ to_fp 11 53) xx_ack!88) ((_ to_fp 11 53) #xabababababababab))))
(assert (not (fp.lt ((_ to_fp 11 53) xx_ack!88) ((_ to_fp 11 53) x0_ack!89))))
(assert (fp.geq ((_ to_fp 11 53) xx_ack!88) ((_ to_fp 11 53) x1_ack!84)))
(assert (not (fp.gt ((_ to_fp 11 53) x1_ack!84) ((_ to_fp 11 53) xx_ack!88))))
(assert (fp.gt (fp.sub roundNearestTiesToEven
               ((_ to_fp 11 53) x2_ack!85)
               ((_ to_fp 11 53) x1_ack!84))
       ((_ to_fp 11 53) #x0000000000000000)))
(assert (FPCHECK_FSUB_ACCURACY y2_ack!87 y1_ack!86))

(check-sat)
(exit)
